solution status: gap limit reached
objective value:                          28502.16563
y#1                                                 1 	(obj:5700)
y#2                                                 1 	(obj:5700)
y#6                                                 1 	(obj:5700)
y#7                                                 1 	(obj:5700)
y#9                                                 1 	(obj:5700)
x#1#6                                               1 	(obj:0.07701)
x#2#7                                               1 	(obj:0.07905)
x#3#2                                               1 	(obj:0.02686)
x#4#7                                               1 	(obj:0.0391)
x#5#6                                               1 	(obj:0.08347)
x#6#6                                               1 	(obj:0.10982)
x#7#2                                               1 	(obj:0.01887)
x#8#2                                               1 	(obj:0.05916)
x#9#9                                               1 	(obj:0.0391)
x#10#6                                              1 	(obj:0.0374)
x#11#9                                              1 	(obj:0.0323)
x#12#7                                              1 	(obj:0.01173)
x#13#6                                              1 	(obj:0.03298)
x#14#2                                              1 	(obj:0.08024)
x#15#2                                              1 	(obj:0.03808)
x#16#1                                              1 	(obj:0.02618)
x#17#2                                              1 	(obj:0.02227)
x#18#2                                              1 	(obj:0.04199)
x#19#6                                              1 	(obj:0.02023)
x#20#6                                              1 	(obj:0.08279)
x#21#1                                              1 	(obj:0.00765)
x#22#7                                              1 	(obj:0.06494)
x#23#1                                              1 	(obj:0.05593)
x#24#7                                              1 	(obj:0.03655)
x#25#7                                              1 	(obj:0.03519)
x#26#7                                              1 	(obj:0.02142)
x#27#6                                              1 	(obj:0.02499)
x#28#2                                              1 	(obj:0.03383)
x#29#7                                              1 	(obj:0.0119)
x#30#9                                              1 	(obj:0.02057)
x#31#1                                              1 	(obj:0.05202)
x#32#6                                              1 	(obj:0.04692)
x#33#2                                              1 	(obj:0.0459)
x#34#9                                              1 	(obj:0.02788)
x#35#1                                              1 	(obj:0.03944)
x#36#1                                              1 	(obj:0.02686)
x#37#1                                              1 	(obj:0.01955)
x#38#9                                              1 	(obj:0.034)
x#39#9                                              1 	(obj:0.03264)
x#40#2                                              1 	(obj:0.01581)
x#41#9                                              1 	(obj:0.01258)
x#42#1                                              1 	(obj:0.0952)
x#43#7                                              1 	(obj:0.01955)
x#44#9                                              1 	(obj:0.03077)
x#45#2                                              1 	(obj:0.03043)
x#46#6                                              1 	(obj:0.03536)
x#47#9                                              1 	(obj:0.04012)
x#48#1                                              1 	(obj:0.00986)
x#49#7                                              1 	(obj:0.02057)
x#50#1                                              1 	(obj:0.07157)
x#51#9                                              1 	(obj:0.0357)
x#52#7                                              1 	(obj:0.02261)
x#53#1                                              1 	(obj:0.0068)
x#54#9                                              1 	(obj:0.03859)
x#55#1                                              1 	(obj:0.04063)
x#56#7                                              1 	(obj:0.04267)
